c CNF file corresponding to a (partial) station packing problem.
p cnf 5083 229
1 2 3 4 5 6 7 8 9 10 11 12 13 14 0
-1 -2 0
-1 -3 0
-1 -4 0
-1 -5 0
-1 -6 0
-1 -7 0
-1 -8 0
-1 -9 0
-1 -10 0
-1 -11 0
-1 -12 0
-1 -13 0
-1 -14 0
-2 -3 0
-2 -4 0
-2 -5 0
-2 -6 0
-2 -7 0
-2 -8 0
-2 -9 0
-2 -10 0
-2 -11 0
-2 -12 0
-2 -13 0
-2 -14 0
-3 -4 0
-3 -5 0
-3 -6 0
-3 -7 0
-3 -8 0
-3 -9 0
-3 -10 0
-3 -11 0
-3 -12 0
-3 -13 0
-3 -14 0
-4 -5 0
-4 -6 0
-4 -7 0
-4 -8 0
-4 -9 0
-4 -10 0
-4 -11 0
-4 -12 0
-4 -13 0
-4 -14 0
-5 -6 0
-5 -7 0
-5 -8 0
-5 -9 0
-5 -10 0
-5 -11 0
-5 -12 0
-5 -13 0
-5 -14 0
-6 -7 0
-6 -8 0
-6 -9 0
-6 -10 0
-6 -11 0
-6 -12 0
-6 -13 0
-6 -14 0
-7 -8 0
-7 -9 0
-7 -10 0
-7 -11 0
-7 -12 0
-7 -13 0
-7 -14 0
-8 -9 0
-8 -10 0
-8 -11 0
-8 -12 0
-8 -13 0
-8 -14 0
-9 -10 0
-9 -11 0
-9 -12 0
-9 -13 0
-9 -14 0
-10 -11 0
-10 -12 0
-10 -13 0
-10 -14 0
-11 -12 0
-11 -13 0
-11 -14 0
-12 -13 0
-12 -14 0
-13 -14 0
5067 5068 5069 5070 5071 5072 5073 5074 5075 5076 5077 5078 5079 5080 5081 5082 5083 0
-5067 -5068 0
-5067 -5069 0
-5067 -5070 0
-5067 -5071 0
-5067 -5072 0
-5067 -5073 0
-5067 -5074 0
-5067 -5075 0
-5067 -5076 0
-5067 -5077 0
-5067 -5078 0
-5067 -5079 0
-5067 -5080 0
-5067 -5081 0
-5067 -5082 0
-5067 -5083 0
-5068 -5069 0
-5068 -5070 0
-5068 -5071 0
-5068 -5072 0
-5068 -5073 0
-5068 -5074 0
-5068 -5075 0
-5068 -5076 0
-5068 -5077 0
-5068 -5078 0
-5068 -5079 0
-5068 -5080 0
-5068 -5081 0
-5068 -5082 0
-5068 -5083 0
-5069 -5070 0
-5069 -5071 0
-5069 -5072 0
-5069 -5073 0
-5069 -5074 0
-5069 -5075 0
-5069 -5076 0
-5069 -5077 0
-5069 -5078 0
-5069 -5079 0
-5069 -5080 0
-5069 -5081 0
-5069 -5082 0
-5069 -5083 0
-5070 -5071 0
-5070 -5072 0
-5070 -5073 0
-5070 -5074 0
-5070 -5075 0
-5070 -5076 0
-5070 -5077 0
-5070 -5078 0
-5070 -5079 0
-5070 -5080 0
-5070 -5081 0
-5070 -5082 0
-5070 -5083 0
-5071 -5072 0
-5071 -5073 0
-5071 -5074 0
-5071 -5075 0
-5071 -5076 0
-5071 -5077 0
-5071 -5078 0
-5071 -5079 0
-5071 -5080 0
-5071 -5081 0
-5071 -5082 0
-5071 -5083 0
-5072 -5073 0
-5072 -5074 0
-5072 -5075 0
-5072 -5076 0
-5072 -5077 0
-5072 -5078 0
-5072 -5079 0
-5072 -5080 0
-5072 -5081 0
-5072 -5082 0
-5072 -5083 0
-5073 -5074 0
-5073 -5075 0
-5073 -5076 0
-5073 -5077 0
-5073 -5078 0
-5073 -5079 0
-5073 -5080 0
-5073 -5081 0
-5073 -5082 0
-5073 -5083 0
-5074 -5075 0
-5074 -5076 0
-5074 -5077 0
-5074 -5078 0
-5074 -5079 0
-5074 -5080 0
-5074 -5081 0
-5074 -5082 0
-5074 -5083 0
-5075 -5076 0
-5075 -5077 0
-5075 -5078 0
-5075 -5079 0
-5075 -5080 0
-5075 -5081 0
-5075 -5082 0
-5075 -5083 0
-5076 -5077 0
-5076 -5078 0
-5076 -5079 0
-5076 -5080 0
-5076 -5081 0
-5076 -5082 0
-5076 -5083 0
-5077 -5078 0
-5077 -5079 0
-5077 -5080 0
-5077 -5081 0
-5077 -5082 0
-5077 -5083 0
-5078 -5079 0
-5078 -5080 0
-5078 -5081 0
-5078 -5082 0
-5078 -5083 0
-5079 -5080 0
-5079 -5081 0
-5079 -5082 0
-5079 -5083 0
-5080 -5081 0
-5080 -5082 0
-5080 -5083 0
-5081 -5082 0
-5081 -5083 0
-5082 -5083 0
